************************************************************************
file with basedata            : mm60_.bas
initial value random generator: 6296
************************************************************************
projects                      :  1
jobs (incl. supersource/sink ):  12
horizon                       :  79
RESOURCES
  - renewable                 :  2   R
  - nonrenewable              :  2   N
  - doubly constrained        :  0   D
************************************************************************
PROJECT INFORMATION:
pronr.  #jobs rel.date duedate tardcost  MPM-Time
    1     10      0       13        2       13
************************************************************************
PRECEDENCE RELATIONS:
jobnr.    #modes  #successors   successors
   0        1          3           1   2   3
   1        3          1           8
   2        3          1           6
   3        3          2           4   5
   4        3          2           6   8
   5        3          3           6   7   8
   6        3          1           9
   7        3          2           9  10
   8        3          1          11
   9        3          1          11
  10        3          1          11
  11        1          0        
************************************************************************
REQUESTS/DURATIONS:
jobnr. mode duration  R 1  R 2  R 3  R 4  E(W 1)  E(W 2)
------------------------------------------------------------------------
  0      1     0       0    0    0    0     0       0
  1      1     2       8    5    0    5    26      10
  2      1     3       8    7    0    6    45      18
  3      1     5       7   10    0    7    85      35
  4      1     5       8    7    5    0    75      25
  5      1     1       4    7    8    0    11       8
  6      1     1       8    9    0    8    17       8
  7      1     5       8   10    0    9    90      45
  8      1     1       3   10    0    6    13       6
  9      1     2       6    9    0    9    30      18
 10      1     2       8    7    0    9    30      18
 11      1     0       0    0    0    0     0       0
************************************************************************
RESOURCEAVAILABILITIES:
  R 1  R 2
   52   112
************************************************************************
RESOURCE LIMITS:
jobnr.  l(R 1)  u(R 1)  l(R 2)  u(R 2)
------------------------------------------------------------------------
  0        0       0       0       0
  1        7      13       3       5
  2        8      15       3       6
  3        9      17       4       7
  4        8      15       3       5
  5        6      11       4       8
  6        9      17       4       8
  7        9      18       5       9
  8        7      13       3       6
  9        8      15       5       9
 10        8      15       5       9
 11        0       0       0       0
************************************************************************
SCENARIOS:
------------------------------------------------------------------------
RESOURCE k = 1
s = 1: (0, 22, 30, 80, 89, 8, 28, 99, 8, 39, 29, 0)
s = 2: (0, 22, 43, 52, 42, 17, 22, 83, 17, 22, 22, 0)
s = 3: (0, 21, 49, 69, 57, 8, 21, 112, 18, 25, 32, 0)
s = 4: (0, 22, 35, 77, 67, 8, 15, 85, 10, 52, 25, 0)
s = 5: (0, 17, 30, 103, 96, 10, 16, 56, 11, 42, 48, 0)
s = 6: (0, 20, 39, 95, 81, 10, 23, 108, 9, 21, 40, 0)
s = 7: (0, 25, 52, 60, 95, 15, 26, 95, 9, 26, 22, 0)
s = 8: (0, 29, 49, 55, 69, 15, 10, 116, 14, 25, 35, 0)
s = 9: (0, 23, 49, 110, 59, 16, 28, 56, 13, 31, 34, 0)
s = 10: (0, 16, 52, 54, 63, 7, 15, 115, 18, 55, 32, 0)
s = 11: (0, 32, 42, 103, 48, 15, 16, 79, 13, 25, 26, 0)
s = 12: (0, 24, 46, 78, 65, 14, 16, 96, 12, 30, 47, 0)
s = 13: (0, 35, 46, 105, 95, 11, 25, 68, 11, 17, 31, 0)
s = 14: (0, 33, 40, 92, 110, 9, 17, 93, 11, 20, 38, 0)
s = 15: (0, 33, 64, 104, 85, 10, 12, 71, 8, 39, 39, 0)
s = 16: (0, 21, 54, 91, 54, 10, 10, 71, 8, 17, 36, 0)
s = 17: (0, 24, 46, 101, 64, 7, 28, 121, 14, 30, 32, 0)
s = 18: (0, 27, 39, 96, 82, 9, 15, 72, 9, 21, 23, 0)
s = 19: (0, 23, 63, 112, 66, 8, 23, 75, 15, 30, 18, 0)
s = 20: (0, 31, 65, 91, 73, 13, 9, 136, 10, 45, 24, 0)
s = 21: (0, 21, 62, 127, 45, 13, 18, 56, 14, 43, 29, 0)
s = 22: (0, 39, 25, 144, 54, 19, 15, 95, 20, 18, 33, 0)
s = 23: (0, 23, 58, 81, 82, 9, 17, 139, 22, 21, 29, 0)
s = 24: (0, 24, 35, 131, 51, 11, 16, 95, 18, 20, 32, 0)
s = 25: (0, 19, 35, 67, 56, 12, 19, 106, 10, 25, 44, 0)
s = 26: (0, 30, 30, 68, 66, 9, 26, 92, 13, 36, 20, 0)
s = 27: (0, 18, 44, 89, 48, 11, 19, 52, 14, 33, 31, 0)
s = 28: (0, 24, 45, 88, 45, 13, 14, 90, 8, 20, 24, 0)
s = 29: (0, 21, 80, 71, 91, 10, 17, 65, 8, 19, 26, 0)
s = 30: (0, 24, 41, 74, 122, 8, 25, 66, 17, 25, 27, 0)
s = 31: (0, 22, 75, 115, 55, 9, 26, 65, 14, 36, 37, 0)
s = 32: (0, 20, 67, 67, 62, 9, 10, 99, 14, 37, 26, 0)
s = 33: (0, 39, 61, 62, 115, 13, 13, 103, 10, 21, 44, 0)
s = 34: (0, 24, 50, 67, 91, 11, 15, 54, 22, 34, 26, 0)
s = 35: (0, 35, 28, 78, 56, 13, 14, 105, 18, 22, 20, 0)
s = 36: (0, 36, 37, 85, 54, 10, 10, 58, 9, 24, 38, 0)
s = 37: (0, 28, 45, 81, 91, 8, 22, 63, 10, 25, 30, 0)
s = 38: (0, 44, 25, 68, 73, 13, 22, 145, 14, 28, 22, 0)
s = 39: (0, 23, 39, 83, 86, 8, 12, 111, 16, 30, 27, 0)
s = 40: (0, 31, 47, 75, 75, 17, 16, 115, 10, 17, 27, 0)
s = 41: (0, 16, 41, 53, 44, 13, 13, 69, 9, 25, 39, 0)
s = 42: (0, 27, 53, 85, 51, 8, 21, 55, 12, 33, 43, 0)
s = 43: (0, 18, 59, 135, 82, 8, 26, 139, 12, 38, 18, 0)
s = 44: (0, 25, 72, 77, 81, 13, 14, 101, 8, 17, 50, 0)
s = 45: (0, 16, 45, 92, 121, 14, 16, 69, 20, 34, 34, 0)
s = 46: (0, 26, 34, 78, 61, 12, 12, 80, 15, 22, 30, 0)
s = 47: (0, 41, 47, 129, 60, 10, 14, 82, 13, 25, 26, 0)
s = 48: (0, 14, 52, 68, 66, 11, 20, 60, 18, 35, 25, 0)
s = 49: (0, 22, 46, 115, 92, 9, 13, 136, 13, 30, 29, 0)
s = 50: (0, 21, 56, 62, 77, 7, 22, 83, 8, 21, 46, 0)
s = 51: (0, 23, 58, 98, 122, 9, 19, 68, 14, 49, 23, 0)
s = 52: (0, 39, 51, 91, 62, 7, 15, 113, 10, 37, 26, 0)
s = 53: (0, 33, 36, 84, 79, 11, 13, 120, 9, 22, 24, 0)
s = 54: (0, 18, 45, 105, 55, 17, 30, 60, 9, 30, 28, 0)
s = 55: (0, 17, 33, 71, 61, 10, 21, 122, 9, 24, 36, 0)
s = 56: (0, 22, 63, 80, 43, 8, 16, 141, 12, 35, 19, 0)
s = 57: (0, 34, 31, 150, 93, 9, 28, 79, 14, 28, 33, 0)
s = 58: (0, 30, 43, 49, 80, 8, 11, 73, 17, 41, 21, 0)
s = 59: (0, 28, 48, 48, 87, 13, 24, 99, 13, 45, 23, 0)
s = 60: (0, 36, 68, 137, 70, 13, 11, 68, 12, 27, 19, 0)
s = 61: (0, 17, 47, 69, 101, 15, 21, 92, 13, 29, 30, 0)
s = 62: (0, 29, 65, 86, 89, 8, 15, 112, 9, 30, 19, 0)
s = 63: (0, 24, 45, 83, 56, 9, 14, 132, 16, 27, 30, 0)
s = 64: (0, 22, 57, 127, 50, 9, 13, 72, 18, 31, 19, 0)
s = 65: (0, 34, 52, 63, 71, 19, 10, 55, 12, 32, 19, 0)
s = 66: (0, 31, 40, 57, 81, 12, 17, 136, 16, 38, 37, 0)
s = 67: (0, 23, 43, 68, 104, 12, 14, 80, 20, 41, 18, 0)
s = 68: (0, 26, 55, 76, 53, 18, 15, 126, 16, 27, 39, 0)
s = 69: (0, 31, 36, 78, 60, 11, 12, 92, 16, 45, 48, 0)
s = 70: (0, 23, 53, 61, 56, 10, 17, 117, 12, 46, 28, 0)
s = 71: (0, 21, 40, 76, 63, 16, 17, 103, 12, 18, 32, 0)
s = 72: (0, 17, 45, 53, 41, 12, 16, 86, 13, 25, 29, 0)
s = 73: (0, 16, 43, 67, 54, 12, 17, 71, 12, 50, 29, 0)
s = 74: (0, 33, 34, 60, 86, 11, 26, 88, 14, 31, 36, 0)
s = 75: (0, 29, 42, 96, 118, 13, 20, 109, 11, 47, 26, 0)
s = 76: (0, 40, 58, 70, 78, 8, 11, 72, 10, 24, 18, 0)
s = 77: (0, 19, 31, 64, 80, 9, 13, 119, 14, 18, 34, 0)
s = 78: (0, 27, 41, 142, 51, 8, 11, 74, 20, 35, 40, 0)
s = 79: (0, 25, 65, 76, 72, 11, 22, 59, 11, 50, 22, 0)
s = 80: (0, 22, 51, 73, 65, 7, 14, 49, 11, 26, 37, 0)
s = 81: (0, 35, 29, 86, 78, 13, 17, 122, 16, 21, 24, 0)
s = 82: (0, 18, 42, 124, 51, 11, 20, 74, 9, 28, 30, 0)
s = 83: (0, 28, 28, 59, 66, 10, 13, 109, 13, 23, 33, 0)
s = 84: (0, 42, 44, 68, 57, 14, 17, 64, 15, 32, 44, 0)
s = 85: (0, 38, 33, 157, 70, 8, 19, 94, 13, 34, 39, 0)
s = 86: (0, 24, 67, 57, 68, 9, 22, 83, 9, 25, 40, 0)
s = 87: (0, 30, 46, 126, 45, 11, 18, 87, 8, 44, 19, 0)
s = 88: (0, 15, 68, 89, 97, 10, 13, 57, 14, 42, 43, 0)
s = 89: (0, 23, 43, 122, 59, 15, 13, 91, 11, 28, 21, 0)
s = 90: (0, 29, 49, 57, 72, 14, 12, 73, 20, 32, 42, 0)
s = 91: (0, 32, 36, 87, 49, 7, 17, 79, 11, 18, 48, 0)
s = 92: (0, 24, 64, 62, 117, 6, 17, 63, 17, 38, 21, 0)
s = 93: (0, 32, 32, 133, 117, 11, 18, 53, 8, 18, 21, 0)
s = 94: (0, 17, 33, 102, 112, 10, 26, 104, 11, 30, 22, 0)
s = 95: (0, 38, 27, 58, 67, 15, 21, 66, 13, 30, 17, 0)
s = 96: (0, 41, 37, 47, 105, 11, 14, 103, 11, 32, 32, 0)
s = 97: (0, 17, 44, 79, 51, 13, 14, 121, 14, 35, 30, 0)
s = 98: (0, 19, 24, 60, 62, 10, 22, 108, 18, 41, 49, 0)
s = 99: (0, 19, 52, 48, 81, 7, 26, 82, 10, 42, 27, 0)
s = 100: (0, 24, 41, 121, 85, 10, 16, 76, 9, 51, 42, 0)
s = 101: (0, 25, 58, 55, 68, 18, 15, 72, 11, 24, 27, 0)
s = 102: (0, 25, 29, 79, 68, 12, 15, 102, 12, 44, 39, 0)
s = 103: (0, 21, 39, 93, 133, 7, 22, 84, 8, 33, 48, 0)
s = 104: (0, 20, 64, 72, 63, 11, 25, 128, 13, 29, 24, 0)
s = 105: (0, 15, 43, 102, 63, 14, 21, 82, 14, 28, 34, 0)
s = 106: (0, 43, 49, 84, 122, 9, 24, 105, 16, 31, 28, 0)
s = 107: (0, 28, 58, 89, 59, 18, 11, 56, 21, 23, 46, 0)
s = 108: (0, 20, 33, 112, 97, 12, 14, 120, 11, 30, 48, 0)
s = 109: (0, 22, 57, 97, 58, 12, 24, 76, 13, 20, 32, 0)
s = 110: (0, 38, 55, 69, 71, 10, 18, 68, 16, 38, 24, 0)
s = 111: (0, 24, 81, 86, 66, 8, 16, 57, 17, 35, 39, 0)
s = 112: (0, 38, 65, 71, 73, 11, 15, 98, 18, 32, 20, 0)
s = 113: (0, 34, 49, 111, 72, 10, 17, 107, 10, 36, 40, 0)
s = 114: (0, 20, 50, 61, 96, 15, 24, 57, 14, 32, 23, 0)
s = 115: (0, 36, 41, 92, 142, 12, 19, 89, 10, 36, 35, 0)
s = 116: (0, 26, 52, 68, 79, 7, 19, 126, 13, 45, 38, 0)
s = 117: (0, 31, 69, 79, 108, 18, 27, 142, 16, 23, 57, 0)
s = 118: (0, 30, 47, 120, 74, 14, 14, 106, 10, 27, 29, 0)
s = 119: (0, 24, 47, 65, 77, 16, 12, 85, 16, 26, 40, 0)
s = 120: (0, 21, 24, 116, 98, 8, 19, 96, 13, 31, 34, 0)
s = 121: (0, 23, 46, 76, 103, 17, 16, 115, 17, 23, 39, 0)
s = 122: (0, 18, 42, 65, 105, 10, 13, 128, 19, 39, 25, 0)
s = 123: (0, 25, 47, 74, 66, 11, 18, 120, 10, 42, 40, 0)
s = 124: (0, 19, 36, 93, 46, 13, 14, 69, 19, 20, 24, 0)
s = 125: (0, 22, 46, 110, 81, 7, 19, 134, 11, 47, 52, 0)
s = 126: (0, 19, 51, 108, 73, 10, 13, 76, 17, 34, 43, 0)
s = 127: (0, 29, 46, 102, 98, 10, 17, 97, 8, 26, 24, 0)
s = 128: (0, 35, 30, 89, 77, 8, 29, 81, 16, 42, 49, 0)
s = 129: (0, 17, 69, 126, 54, 17, 18, 62, 13, 20, 19, 0)
s = 130: (0, 24, 58, 94, 85, 9, 14, 63, 11, 48, 24, 0)
s = 131: (0, 20, 57, 67, 146, 9, 17, 81, 12, 38, 24, 0)
s = 132: (0, 28, 35, 91, 95, 9, 22, 62, 18, 38, 38, 0)
s = 133: (0, 28, 46, 73, 131, 13, 22, 50, 11, 41, 38, 0)
s = 134: (0, 32, 36, 97, 83, 11, 12, 130, 8, 20, 28, 0)
s = 135: (0, 35, 43, 111, 111, 13, 20, 63, 13, 26, 29, 0)
s = 136: (0, 19, 61, 119, 113, 7, 18, 94, 18, 32, 27, 0)
s = 137: (0, 27, 49, 70, 88, 20, 15, 122, 9, 31, 31, 0)
s = 138: (0, 28, 48, 59, 58, 11, 15, 99, 20, 27, 23, 0)
s = 139: (0, 23, 43, 51, 47, 8, 16, 94, 11, 31, 31, 0)
s = 140: (0, 35, 39, 105, 82, 13, 21, 94, 13, 35, 24, 0)
s = 141: (0, 32, 44, 102, 59, 8, 18, 69, 12, 28, 29, 0)
s = 142: (0, 22, 56, 87, 47, 12, 26, 89, 10, 27, 26, 0)
s = 143: (0, 26, 60, 74, 79, 12, 14, 78, 17, 24, 24, 0)
s = 144: (0, 16, 27, 81, 78, 9, 18, 86, 8, 45, 20, 0)
s = 145: (0, 40, 39, 94, 63, 7, 10, 97, 9, 29, 25, 0)
s = 146: (0, 18, 50, 71, 50, 8, 15, 63, 12, 31, 24, 0)
s = 147: (0, 22, 28, 73, 71, 8, 20, 64, 11, 32, 20, 0)
s = 148: (0, 30, 57, 71, 83, 16, 12, 94, 14, 38, 44, 0)
s = 149: (0, 42, 52, 48, 117, 15, 33, 68, 14, 48, 24, 0)
s = 150: (0, 26, 61, 71, 95, 11, 18, 67, 12, 17, 37, 0)
s = 151: (0, 23, 65, 54, 125, 12, 16, 84, 10, 28, 49, 0)
s = 152: (0, 31, 40, 81, 126, 8, 14, 95, 18, 40, 27, 0)
s = 153: (0, 23, 77, 102, 110, 16, 18, 109, 18, 26, 20, 0)
s = 154: (0, 22, 29, 65, 59, 9, 20, 92, 22, 29, 32, 0)
s = 155: (0, 31, 59, 69, 95, 9, 15, 73, 11, 38, 32, 0)
s = 156: (0, 31, 67, 53, 100, 10, 18, 162, 12, 26, 26, 0)
s = 157: (0, 22, 42, 60, 76, 8, 25, 145, 15, 33, 35, 0)
s = 158: (0, 29, 38, 88, 62, 8, 28, 69, 9, 21, 34, 0)
s = 159: (0, 26, 25, 57, 86, 11, 18, 75, 12, 36, 59, 0)
s = 160: (0, 14, 78, 85, 100, 16, 18, 126, 9, 24, 28, 0)
s = 161: (0, 14, 62, 57, 63, 9, 11, 76, 13, 27, 26, 0)
s = 162: (0, 26, 61, 97, 73, 17, 19, 112, 15, 26, 34, 0)
s = 163: (0, 29, 59, 74, 106, 7, 12, 122, 12, 31, 23, 0)
s = 164: (0, 29, 36, 101, 140, 9, 14, 100, 17, 29, 25, 0)
s = 165: (0, 15, 50, 58, 64, 9, 12, 95, 17, 19, 28, 0)
s = 166: (0, 17, 54, 67, 83, 8, 27, 135, 18, 25, 25, 0)
s = 167: (0, 17, 37, 65, 116, 13, 22, 112, 11, 22, 26, 0)
s = 168: (0, 32, 67, 92, 72, 12, 24, 133, 17, 52, 29, 0)
s = 169: (0, 33, 30, 74, 77, 10, 15, 87, 13, 22, 32, 0)
s = 170: (0, 29, 51, 150, 81, 10, 12, 123, 12, 29, 33, 0)
s = 171: (0, 48, 31, 116, 104, 17, 19, 122, 19, 40, 22, 0)
s = 172: (0, 30, 50, 79, 81, 13, 19, 93, 14, 31, 49, 0)
s = 173: (0, 26, 35, 55, 74, 10, 15, 63, 14, 40, 53, 0)
s = 174: (0, 22, 53, 67, 77, 11, 12, 128, 13, 26, 42, 0)
s = 175: (0, 20, 39, 56, 63, 10, 16, 55, 11, 20, 27, 0)
s = 176: (0, 36, 29, 96, 42, 9, 22, 111, 14, 47, 28, 0)
s = 177: (0, 15, 45, 63, 69, 14, 17, 62, 11, 30, 29, 0)
s = 178: (0, 24, 54, 92, 76, 16, 20, 77, 12, 20, 34, 0)
s = 179: (0, 20, 48, 114, 54, 14, 19, 142, 9, 32, 29, 0)
s = 180: (0, 18, 51, 51, 62, 12, 22, 70, 22, 44, 25, 0)
s = 181: (0, 31, 25, 55, 108, 12, 15, 81, 13, 25, 40, 0)
s = 182: (0, 19, 30, 76, 57, 14, 11, 64, 12, 23, 19, 0)
s = 183: (0, 21, 34, 49, 71, 9, 16, 96, 12, 21, 24, 0)
s = 184: (0, 23, 45, 114, 89, 12, 14, 132, 17, 30, 32, 0)
s = 185: (0, 20, 25, 122, 102, 10, 15, 84, 8, 33, 39, 0)
s = 186: (0, 18, 73, 86, 98, 13, 12, 117, 9, 25, 39, 0)
s = 187: (0, 27, 28, 60, 56, 18, 12, 61, 11, 28, 40, 0)
s = 188: (0, 18, 68, 58, 101, 9, 19, 96, 22, 37, 33, 0)
s = 189: (0, 21, 56, 62, 85, 9, 17, 76, 12, 28, 20, 0)
s = 190: (0, 16, 68, 66, 71, 7, 19, 82, 15, 23, 39, 0)
s = 191: (0, 22, 35, 131, 56, 13, 16, 70, 15, 29, 30, 0)
s = 192: (0, 16, 59, 94, 84, 6, 19, 74, 14, 32, 38, 0)
s = 193: (0, 14, 27, 67, 59, 9, 14, 69, 13, 48, 32, 0)
s = 194: (0, 35, 33, 72, 46, 8, 28, 67, 17, 30, 21, 0)
s = 195: (0, 48, 41, 53, 96, 15, 28, 55, 13, 21, 43, 0)
s = 196: (0, 37, 44, 56, 54, 9, 16, 83, 14, 49, 36, 0)
s = 197: (0, 30, 59, 54, 77, 15, 20, 108, 17, 23, 43, 0)
s = 198: (0, 15, 52, 90, 57, 15, 20, 119, 16, 20, 24, 0)
s = 199: (0, 18, 25, 68, 62, 14, 12, 103, 9, 22, 31, 0)
s = 200: (0, 20, 62, 51, 104, 15, 21, 112, 14, 32, 26, 0)
------------------------------------------------------------------------
RESOURCE k = 2
s = 1: (0, 9, 12, 33, 30, 6, 14, 50, 4, 24, 17, 0)
s = 2: (0, 9, 17, 22, 14, 12, 10, 42, 8, 13, 13, 0)
s = 3: (0, 8, 20, 29, 19, 6, 10, 56, 9, 15, 19, 0)
s = 4: (0, 9, 14, 32, 23, 6, 7, 43, 5, 31, 15, 0)
s = 5: (0, 7, 12, 43, 32, 8, 8, 28, 5, 26, 29, 0)
s = 6: (0, 8, 16, 39, 27, 7, 11, 54, 4, 13, 24, 0)
s = 7: (0, 10, 21, 25, 32, 11, 12, 48, 4, 16, 13, 0)
s = 8: (0, 11, 20, 23, 23, 11, 5, 58, 7, 15, 21, 0)
s = 9: (0, 9, 20, 45, 20, 12, 13, 28, 6, 19, 20, 0)
s = 10: (0, 6, 21, 23, 21, 5, 7, 58, 8, 33, 20, 0)
s = 11: (0, 12, 17, 43, 16, 11, 8, 40, 6, 15, 16, 0)
s = 12: (0, 10, 19, 33, 22, 10, 8, 48, 6, 18, 28, 0)
s = 13: (0, 14, 19, 44, 32, 8, 12, 34, 5, 11, 19, 0)
s = 14: (0, 13, 16, 38, 37, 7, 8, 47, 5, 12, 23, 0)
s = 15: (0, 13, 26, 43, 29, 7, 6, 36, 4, 23, 24, 0)
s = 16: (0, 8, 22, 38, 18, 7, 5, 36, 4, 11, 22, 0)
s = 17: (0, 10, 19, 42, 22, 5, 13, 61, 7, 18, 20, 0)
s = 18: (0, 11, 16, 40, 28, 7, 7, 36, 5, 13, 14, 0)
s = 19: (0, 9, 25, 46, 22, 6, 11, 38, 7, 18, 11, 0)
s = 20: (0, 12, 26, 38, 25, 10, 5, 68, 5, 27, 15, 0)
s = 21: (0, 8, 25, 53, 15, 10, 9, 28, 7, 26, 17, 0)
s = 22: (0, 15, 10, 59, 18, 14, 8, 48, 9, 11, 20, 0)
s = 23: (0, 9, 24, 34, 28, 6, 8, 70, 10, 13, 17, 0)
s = 24: (0, 9, 14, 54, 17, 8, 8, 48, 8, 12, 19, 0)
s = 25: (0, 8, 14, 28, 19, 9, 9, 53, 5, 15, 27, 0)
s = 26: (0, 12, 12, 28, 22, 6, 12, 46, 6, 22, 12, 0)
s = 27: (0, 7, 18, 37, 16, 8, 9, 26, 7, 20, 19, 0)
s = 28: (0, 10, 18, 37, 15, 10, 7, 45, 4, 12, 15, 0)
s = 29: (0, 8, 32, 30, 31, 8, 8, 33, 4, 12, 16, 0)
s = 30: (0, 10, 17, 31, 41, 6, 12, 33, 8, 15, 16, 0)
s = 31: (0, 9, 30, 48, 19, 6, 13, 33, 7, 22, 22, 0)
s = 32: (0, 8, 27, 28, 21, 6, 5, 50, 7, 22, 16, 0)
s = 33: (0, 15, 25, 26, 39, 9, 7, 52, 5, 13, 26, 0)
s = 34: (0, 10, 20, 28, 31, 8, 7, 27, 10, 20, 16, 0)
s = 35: (0, 14, 12, 32, 19, 10, 7, 53, 8, 14, 12, 0)
s = 36: (0, 14, 15, 35, 18, 7, 5, 29, 4, 15, 23, 0)
s = 37: (0, 11, 18, 34, 31, 6, 11, 32, 5, 15, 18, 0)
s = 38: (0, 17, 10, 28, 25, 10, 11, 73, 7, 17, 13, 0)
s = 39: (0, 9, 16, 35, 29, 6, 6, 56, 8, 18, 16, 0)
s = 40: (0, 12, 19, 31, 25, 13, 8, 58, 5, 10, 16, 0)
s = 41: (0, 6, 17, 22, 15, 10, 6, 35, 5, 15, 24, 0)
s = 42: (0, 11, 21, 35, 17, 6, 10, 28, 6, 20, 26, 0)
s = 43: (0, 7, 24, 56, 28, 6, 13, 70, 6, 23, 11, 0)
s = 44: (0, 10, 29, 32, 27, 9, 7, 51, 4, 10, 30, 0)
s = 45: (0, 6, 18, 38, 41, 10, 8, 35, 9, 21, 21, 0)
s = 46: (0, 10, 14, 32, 21, 9, 6, 40, 7, 13, 18, 0)
s = 47: (0, 16, 19, 53, 20, 7, 7, 41, 6, 15, 16, 0)
s = 48: (0, 6, 21, 28, 22, 8, 10, 30, 8, 21, 15, 0)
s = 49: (0, 9, 19, 48, 31, 6, 7, 68, 6, 18, 18, 0)
s = 50: (0, 8, 23, 26, 26, 5, 11, 42, 4, 13, 28, 0)
s = 51: (0, 9, 23, 41, 41, 7, 9, 34, 7, 29, 14, 0)
s = 52: (0, 15, 21, 38, 21, 5, 7, 57, 5, 22, 16, 0)
s = 53: (0, 13, 15, 35, 27, 8, 7, 60, 5, 14, 15, 0)
s = 54: (0, 7, 18, 44, 19, 12, 14, 30, 4, 18, 17, 0)
s = 55: (0, 7, 14, 29, 21, 7, 10, 61, 5, 15, 22, 0)
s = 56: (0, 9, 25, 33, 15, 6, 8, 71, 6, 21, 12, 0)
s = 57: (0, 14, 13, 62, 31, 7, 13, 40, 7, 17, 20, 0)
s = 58: (0, 12, 18, 20, 27, 6, 5, 37, 8, 25, 13, 0)
s = 59: (0, 11, 20, 20, 29, 9, 12, 50, 6, 27, 14, 0)
s = 60: (0, 14, 27, 57, 24, 10, 5, 34, 6, 16, 12, 0)
s = 61: (0, 7, 19, 29, 34, 11, 10, 46, 6, 18, 18, 0)
s = 62: (0, 11, 26, 36, 30, 6, 7, 56, 5, 18, 11, 0)
s = 63: (0, 10, 18, 35, 19, 7, 7, 66, 8, 17, 18, 0)
s = 64: (0, 9, 23, 53, 17, 6, 6, 36, 9, 19, 11, 0)
s = 65: (0, 13, 21, 26, 24, 14, 5, 28, 6, 19, 12, 0)
s = 66: (0, 12, 16, 24, 27, 9, 8, 68, 8, 23, 23, 0)
s = 67: (0, 9, 17, 28, 35, 9, 7, 40, 9, 25, 11, 0)
s = 68: (0, 10, 22, 31, 18, 13, 7, 63, 8, 16, 24, 0)
s = 69: (0, 12, 15, 32, 20, 8, 6, 46, 8, 27, 29, 0)
s = 70: (0, 9, 22, 25, 19, 7, 8, 59, 6, 28, 17, 0)
s = 71: (0, 8, 16, 31, 21, 12, 8, 52, 6, 11, 20, 0)
s = 72: (0, 7, 18, 22, 14, 9, 8, 43, 6, 15, 18, 0)
s = 73: (0, 6, 18, 28, 18, 9, 8, 36, 6, 30, 18, 0)
s = 74: (0, 13, 14, 25, 29, 8, 13, 44, 7, 19, 22, 0)
s = 75: (0, 11, 17, 40, 40, 9, 10, 55, 5, 28, 16, 0)
s = 76: (0, 16, 24, 29, 26, 6, 6, 36, 5, 15, 11, 0)
s = 77: (0, 7, 13, 26, 27, 7, 6, 60, 7, 11, 20, 0)
s = 78: (0, 11, 17, 59, 17, 6, 5, 37, 9, 21, 24, 0)
s = 79: (0, 10, 26, 32, 24, 8, 11, 30, 6, 30, 14, 0)
s = 80: (0, 9, 21, 30, 22, 5, 7, 25, 5, 16, 23, 0)
s = 81: (0, 14, 12, 36, 26, 9, 8, 61, 7, 13, 15, 0)
s = 82: (0, 7, 17, 51, 17, 8, 10, 37, 4, 17, 18, 0)
s = 83: (0, 11, 11, 25, 22, 7, 6, 55, 6, 14, 20, 0)
s = 84: (0, 16, 18, 28, 19, 10, 8, 32, 7, 19, 26, 0)
s = 85: (0, 15, 14, 65, 24, 6, 9, 47, 6, 21, 24, 0)
s = 86: (0, 9, 27, 24, 23, 6, 11, 42, 5, 15, 24, 0)
s = 87: (0, 12, 19, 52, 15, 8, 9, 44, 4, 26, 12, 0)
s = 88: (0, 6, 27, 37, 33, 7, 7, 29, 7, 26, 26, 0)
s = 89: (0, 9, 17, 51, 20, 11, 6, 46, 5, 17, 13, 0)
s = 90: (0, 11, 20, 24, 24, 10, 6, 37, 10, 19, 25, 0)
s = 91: (0, 13, 15, 36, 17, 5, 8, 40, 5, 11, 29, 0)
s = 92: (0, 9, 26, 26, 39, 5, 8, 32, 8, 23, 13, 0)
s = 93: (0, 13, 13, 55, 39, 8, 9, 27, 4, 11, 13, 0)
s = 94: (0, 7, 14, 42, 38, 7, 12, 52, 5, 18, 13, 0)
s = 95: (0, 15, 11, 24, 23, 11, 10, 33, 6, 18, 10, 0)
s = 96: (0, 16, 15, 20, 35, 8, 7, 52, 5, 19, 19, 0)
s = 97: (0, 7, 18, 33, 17, 10, 7, 61, 7, 21, 18, 0)
s = 98: (0, 8, 10, 25, 21, 7, 11, 54, 8, 25, 30, 0)
s = 99: (0, 8, 21, 20, 27, 5, 12, 41, 5, 25, 17, 0)
s = 100: (0, 10, 17, 50, 29, 7, 8, 38, 5, 31, 25, 0)
s = 101: (0, 10, 23, 23, 23, 13, 7, 36, 5, 15, 17, 0)
s = 102: (0, 10, 12, 33, 23, 9, 8, 51, 6, 26, 24, 0)
s = 103: (0, 8, 16, 39, 45, 5, 10, 42, 4, 20, 29, 0)
s = 104: (0, 8, 26, 30, 21, 8, 12, 64, 6, 17, 15, 0)
s = 105: (0, 6, 17, 42, 21, 11, 10, 41, 7, 17, 21, 0)
s = 106: (0, 17, 20, 35, 41, 6, 12, 53, 8, 19, 17, 0)
s = 107: (0, 11, 24, 37, 20, 13, 6, 28, 10, 14, 28, 0)
s = 108: (0, 8, 14, 46, 33, 9, 7, 60, 5, 18, 29, 0)
s = 109: (0, 9, 23, 40, 20, 9, 12, 38, 6, 12, 19, 0)
s = 110: (0, 15, 22, 29, 24, 7, 9, 34, 7, 23, 14, 0)
s = 111: (0, 9, 33, 36, 22, 6, 8, 29, 8, 21, 24, 0)
s = 112: (0, 15, 26, 29, 25, 8, 7, 49, 9, 19, 12, 0)
s = 113: (0, 13, 20, 46, 24, 8, 8, 54, 5, 22, 24, 0)
s = 114: (0, 8, 20, 25, 32, 11, 12, 29, 7, 19, 14, 0)
s = 115: (0, 14, 17, 38, 48, 9, 9, 45, 5, 22, 21, 0)
s = 116: (0, 10, 21, 28, 27, 5, 9, 63, 6, 27, 23, 0)
s = 117: (0, 12, 28, 33, 36, 13, 13, 71, 8, 14, 34, 0)
s = 118: (0, 12, 19, 50, 25, 10, 7, 53, 5, 16, 18, 0)
s = 119: (0, 9, 19, 27, 26, 12, 6, 43, 7, 16, 24, 0)
s = 120: (0, 8, 10, 48, 33, 6, 9, 48, 6, 19, 20, 0)
s = 121: (0, 9, 19, 32, 35, 13, 8, 58, 8, 14, 23, 0)
s = 122: (0, 7, 17, 27, 35, 7, 6, 64, 9, 24, 15, 0)
s = 123: (0, 10, 19, 31, 22, 8, 9, 60, 5, 25, 24, 0)
s = 124: (0, 8, 15, 38, 16, 9, 7, 35, 9, 12, 15, 0)
s = 125: (0, 9, 19, 46, 27, 5, 9, 67, 5, 28, 32, 0)
s = 126: (0, 8, 21, 45, 25, 7, 7, 38, 8, 21, 26, 0)
s = 127: (0, 12, 19, 42, 33, 8, 8, 49, 4, 16, 15, 0)
s = 128: (0, 14, 12, 37, 26, 6, 14, 41, 7, 25, 30, 0)
s = 129: (0, 7, 28, 52, 18, 12, 9, 31, 6, 12, 11, 0)
s = 130: (0, 10, 23, 39, 29, 7, 7, 32, 5, 29, 15, 0)
s = 131: (0, 8, 23, 28, 49, 7, 8, 41, 6, 23, 15, 0)
s = 132: (0, 11, 14, 38, 32, 7, 11, 31, 8, 23, 23, 0)
s = 133: (0, 11, 19, 30, 44, 10, 11, 25, 5, 25, 23, 0)
s = 134: (0, 13, 15, 40, 28, 8, 6, 65, 4, 12, 17, 0)
s = 135: (0, 14, 18, 46, 37, 10, 10, 32, 6, 16, 18, 0)
s = 136: (0, 8, 25, 49, 38, 5, 9, 47, 9, 20, 16, 0)
s = 137: (0, 11, 20, 29, 30, 15, 8, 61, 4, 19, 19, 0)
s = 138: (0, 11, 19, 25, 20, 8, 7, 50, 9, 16, 14, 0)
s = 139: (0, 9, 18, 21, 16, 6, 8, 47, 5, 19, 19, 0)
s = 140: (0, 14, 16, 43, 28, 9, 10, 47, 6, 21, 15, 0)
s = 141: (0, 13, 18, 42, 20, 6, 9, 35, 6, 17, 18, 0)
s = 142: (0, 9, 23, 36, 16, 9, 13, 45, 5, 16, 16, 0)
s = 143: (0, 10, 24, 31, 27, 9, 7, 39, 8, 15, 14, 0)
s = 144: (0, 7, 11, 34, 26, 6, 9, 43, 4, 27, 12, 0)
s = 145: (0, 16, 16, 39, 21, 5, 5, 49, 4, 17, 15, 0)
s = 146: (0, 7, 20, 30, 17, 6, 7, 32, 6, 19, 15, 0)
s = 147: (0, 9, 12, 30, 24, 6, 10, 32, 5, 20, 12, 0)
s = 148: (0, 12, 23, 30, 28, 12, 6, 47, 7, 23, 27, 0)
s = 149: (0, 16, 21, 20, 39, 11, 16, 34, 7, 29, 14, 0)
s = 150: (0, 10, 25, 29, 32, 8, 9, 34, 6, 11, 22, 0)
s = 151: (0, 9, 26, 22, 42, 9, 8, 42, 5, 17, 29, 0)
s = 152: (0, 12, 16, 34, 42, 6, 7, 48, 9, 24, 17, 0)
s = 153: (0, 9, 31, 42, 37, 12, 9, 55, 8, 16, 12, 0)
s = 154: (0, 9, 12, 27, 20, 6, 10, 46, 10, 18, 19, 0)
s = 155: (0, 12, 24, 29, 32, 6, 8, 37, 5, 23, 20, 0)
s = 156: (0, 12, 27, 22, 34, 8, 9, 81, 6, 16, 16, 0)
s = 157: (0, 9, 17, 25, 26, 6, 12, 73, 7, 20, 21, 0)
s = 158: (0, 12, 16, 37, 21, 6, 14, 35, 4, 13, 20, 0)
s = 159: (0, 10, 10, 24, 29, 8, 9, 38, 6, 22, 36, 0)
s = 160: (0, 6, 31, 35, 34, 12, 9, 63, 4, 15, 17, 0)
s = 161: (0, 6, 25, 24, 21, 7, 5, 38, 6, 17, 16, 0)
s = 162: (0, 10, 25, 40, 25, 13, 9, 56, 7, 16, 21, 0)
s = 163: (0, 11, 24, 31, 36, 6, 6, 61, 6, 19, 14, 0)
s = 164: (0, 12, 15, 42, 47, 7, 7, 50, 8, 18, 15, 0)
s = 165: (0, 6, 20, 24, 22, 7, 6, 48, 8, 12, 17, 0)
s = 166: (0, 7, 22, 28, 28, 6, 13, 68, 9, 15, 15, 0)
s = 167: (0, 7, 15, 27, 39, 10, 11, 56, 5, 13, 16, 0)
s = 168: (0, 13, 27, 38, 24, 9, 11, 67, 8, 32, 17, 0)
s = 169: (0, 13, 12, 31, 26, 8, 8, 44, 6, 13, 19, 0)
s = 170: (0, 11, 21, 62, 27, 7, 6, 62, 6, 17, 20, 0)
s = 171: (0, 19, 13, 48, 35, 13, 9, 61, 9, 24, 13, 0)
s = 172: (0, 12, 20, 33, 27, 10, 9, 47, 7, 19, 30, 0)
s = 173: (0, 10, 14, 23, 25, 7, 7, 32, 7, 24, 32, 0)
s = 174: (0, 9, 21, 28, 26, 8, 6, 64, 6, 16, 25, 0)
s = 175: (0, 8, 16, 23, 21, 7, 8, 28, 5, 12, 16, 0)
s = 176: (0, 14, 12, 40, 14, 7, 11, 56, 7, 29, 17, 0)
s = 177: (0, 6, 18, 26, 23, 10, 8, 31, 5, 18, 18, 0)
s = 178: (0, 10, 22, 38, 26, 12, 10, 39, 6, 12, 21, 0)
s = 179: (0, 8, 19, 47, 18, 11, 9, 71, 4, 19, 17, 0)
s = 180: (0, 7, 21, 21, 21, 9, 11, 35, 11, 26, 15, 0)
s = 181: (0, 12, 10, 23, 36, 9, 7, 41, 6, 15, 24, 0)
s = 182: (0, 7, 12, 31, 19, 10, 6, 32, 6, 14, 12, 0)
s = 183: (0, 8, 14, 20, 24, 7, 8, 48, 6, 13, 14, 0)
s = 184: (0, 9, 18, 47, 30, 9, 7, 66, 8, 18, 20, 0)
s = 185: (0, 8, 10, 51, 34, 7, 7, 42, 4, 20, 24, 0)
s = 186: (0, 7, 30, 36, 33, 10, 6, 59, 5, 15, 24, 0)
s = 187: (0, 11, 12, 25, 19, 13, 6, 31, 5, 17, 24, 0)
s = 188: (0, 7, 27, 24, 34, 7, 9, 48, 10, 23, 20, 0)
s = 189: (0, 8, 23, 26, 29, 7, 8, 38, 6, 17, 12, 0)
s = 190: (0, 6, 27, 28, 24, 5, 9, 41, 7, 14, 23, 0)
s = 191: (0, 9, 14, 54, 19, 10, 8, 35, 7, 18, 18, 0)
s = 192: (0, 6, 24, 39, 28, 5, 9, 37, 7, 19, 23, 0)
s = 193: (0, 6, 11, 28, 20, 6, 7, 35, 6, 29, 19, 0)
s = 194: (0, 14, 14, 30, 16, 6, 14, 34, 8, 18, 13, 0)
s = 195: (0, 19, 17, 22, 32, 11, 14, 28, 6, 13, 26, 0)
s = 196: (0, 14, 18, 24, 18, 7, 8, 42, 7, 30, 22, 0)
s = 197: (0, 12, 24, 23, 26, 11, 10, 54, 8, 14, 26, 0)
s = 198: (0, 6, 21, 37, 19, 11, 10, 60, 8, 12, 15, 0)
s = 199: (0, 7, 10, 28, 21, 10, 6, 52, 4, 14, 19, 0)
s = 200: (0, 8, 25, 21, 35, 11, 10, 56, 7, 19, 16, 0)
************************************************************************
ES/LS-VALUES:
jobnr.   ES(i)    LS(i)
------------------------------------------------------------------------
  0        0        0
  1        0       73
  2        0       67
  3        0       53
  4        9       63
  5        9       64
  6       18       73
  7       10       66
  8       18       77
  9       20       75
 10       19       75
 11       23       79
************************************************************************
BIG-M-VALUES:
M1 = 36, M2 = 243
************************************************************************
